# Solution for model R_500_005_1
# Objective value = 67
x#1 0
x#2 0
x#3 0
x#4 0
x#5 1
x#6 1
x#7 0
x#8 0
x#9 0
x#10 0
x#11 0
x#12 0
x#13 0
x#14 0
x#15 0
x#16 0
x#17 0
x#18 0
x#19 0
x#20 0
x#21 0
x#22 0
x#23 0
x#24 0
x#25 0
x#26 1
x#27 0
x#28 0
x#29 0
x#30 0
x#31 0
x#32 0
x#33 0
x#34 0
x#35 0
x#36 1
x#37 0
x#38 0
x#39 0
x#40 0
x#41 0
x#42 1
x#43 0
x#44 0
x#45 0
x#46 0
x#47 0
x#48 0
x#49 0
x#50 0
x#51 0
x#52 0
x#53 1
x#54 1
x#55 0
x#56 0
x#57 0
x#58 0
x#59 0
x#60 0
x#61 0
x#62 0
x#63 0
x#64 0
x#65 0
x#66 0
x#67 0
x#68 0
x#69 0
x#70 0
x#71 0
x#72 0
x#73 0
x#74 1
x#75 0
x#76 0
x#77 0
x#78 0
x#79 0
x#80 0
x#81 0
x#82 0
x#83 0
x#84 0
x#85 0
x#86 0
x#87 0
x#88 0
x#89 0
x#90 0
x#91 0
x#92 0
x#93 1
x#94 0
x#95 0
x#96 0
x#97 1
x#98 0
x#99 0
x#100 0
x#101 1
x#102 1
x#103 0
x#104 0
x#105 0
x#106 0
x#107 0
x#108 0
x#109 0
x#110 0
x#111 0
x#112 0
x#113 0
x#114 0
x#115 0
x#116 0
x#117 0
x#118 0
x#119 1
x#120 1
x#121 1
x#122 0
x#123 1
x#124 0
x#125 0
x#126 0
x#127 0
x#128 0
x#129 0
x#130 0
x#131 0
x#132 0
x#133 0
x#134 0
x#135 0
x#136 0
x#137 0
x#138 0
x#139 0
x#140 0
x#141 0
x#142 1
x#143 0
x#144 0
x#145 0
x#146 0
x#147 0
x#148 1
x#149 0
x#150 0
x#151 0
x#152 0
x#153 0
x#154 0
x#155 1
x#156 0
x#157 0
x#158 0
x#159 0
x#160 1
x#161 0
x#162 0
x#163 0
x#164 0
x#165 0
x#166 0
x#167 0
x#168 0
x#169 0
x#170 0
x#171 0
x#172 0
x#173 0
x#174 0
x#175 1
x#176 1
x#177 0
x#178 0
x#179 0
x#180 0
x#181 0
x#182 0
x#183 0
x#184 0
x#185 0
x#186 1
x#187 0
x#188 0
x#189 0
x#190 0
x#191 0
x#192 0
x#193 0
x#194 0
x#195 0
x#196 0
x#197 0
x#198 0
x#199 0
x#200 0
x#201 0
x#202 1
x#203 0
x#204 0
x#205 0
x#206 0
x#207 0
x#208 0
x#209 0
x#210 0
x#211 0
x#212 0
x#213 0
x#214 0
x#215 0
x#216 0
x#217 0
x#218 0
x#219 0
x#220 0
x#221 0
x#222 0
x#223 1
x#224 0
x#225 0
x#226 0
x#227 0
x#228 0
x#229 0
x#230 0
x#231 1
x#232 0
x#233 0
x#234 1
x#235 0
x#236 0
x#237 0
x#238 0
x#239 0
x#240 0
x#241 0
x#242 1
x#243 1
x#244 0
x#245 1
x#246 1
x#247 0
x#248 1
x#249 0
x#250 0
x#251 0
x#252 0
x#253 0
x#254 0
x#255 0
x#256 0
x#257 0
x#258 0
x#259 0
x#260 0
x#261 0
x#262 0
x#263 1
x#264 0
x#265 0
x#266 0
x#267 0
x#268 0
x#269 0
x#270 0
x#271 1
x#272 0
x#273 0
x#274 0
x#275 0
x#276 0
x#277 0
x#278 0
x#279 0
x#280 0
x#281 0
x#282 0
x#283 0
x#284 0
x#285 0
x#286 0
x#287 1
x#288 0
x#289 0
x#290 1
x#291 0
x#292 0
x#293 0
x#294 0
x#295 0
x#296 0
x#297 0
x#298 1
x#299 0
x#300 0
x#301 1
x#302 1
x#303 0
x#304 0
x#305 0
x#306 0
x#307 1
x#308 0
x#309 0
x#310 0
x#311 0
x#312 0
x#313 0
x#314 0
x#315 0
x#316 0
x#317 0
x#318 1
x#319 0
x#320 0
x#321 0
x#322 0
x#323 0
x#324 0
x#325 0
x#326 0
x#327 0
x#328 0
x#329 0
x#330 0
x#331 0
x#332 1
x#333 0
x#334 0
x#335 1
x#336 0
x#337 1
x#338 0
x#339 1
x#340 0
x#341 0
x#342 0
x#343 0
x#344 0
x#345 0
x#346 0
x#347 0
x#348 0
x#349 0
x#350 0
x#351 0
x#352 0
x#353 0
x#354 1
x#355 0
x#356 0
x#357 0
x#358 0
x#359 0
x#360 0
x#361 0
x#362 0
x#363 0
x#364 0
x#365 0
x#366 0
x#367 0
x#368 0
x#369 0
x#370 1
x#371 0
x#372 0
x#373 0
x#374 0
x#375 0
x#376 0
x#377 0
x#378 0
x#379 0
x#380 0
x#381 0
x#382 0
x#383 0
x#384 0
x#385 0
x#386 0
x#387 0
x#388 0
x#389 0
x#390 0
x#391 0
x#392 0
x#393 1
x#394 0
x#395 0
x#396 0
x#397 1
x#398 0
x#399 0
x#400 1
x#401 0
x#402 0
x#403 0
x#404 0
x#405 0
x#406 0
x#407 0
x#408 0
x#409 0
x#410 0
x#411 1
x#412 0
x#413 0
x#414 0
x#415 0
x#416 0
x#417 0
x#418 0
x#419 0
x#420 0
x#421 0
x#422 0
x#423 0
x#424 0
x#425 1
x#426 1
x#427 1
x#428 0
x#429 0
x#430 0
x#431 1
x#432 0
x#433 0
x#434 0
x#435 0
x#436 0
x#437 0
x#438 0
x#439 0
x#440 0
x#441 0
x#442 0
x#443 0
x#444 0
x#445 0
x#446 0
x#447 0
x#448 0
x#449 0
x#450 0
x#451 0
x#452 1
x#453 0
x#454 0
x#455 1
x#456 0
x#457 1
x#458 0
x#459 0
x#460 0
x#461 1
x#462 0
x#463 0
x#464 0
x#465 0
x#466 0
x#467 0
x#468 1
x#469 0
x#470 1
x#471 1
x#472 1
x#473 0
x#474 0
x#475 0
x#476 1
x#477 0
x#478 0
x#479 0
x#480 0
x#481 0
x#482 1
x#483 0
x#484 0
x#485 0
x#486 1
x#487 0
x#488 0
x#489 0
x#490 0
x#491 1
x#492 0
x#493 0
x#494 0
x#495 0
x#496 0
x#497 0
x#498 0
x#499 0
x#500 0
